Depot_0 = {0};
Stations = {1,2,3,4,5,6,7,8,9,10,11,12,13,14,15,16,17,18,19,20,21,22,23,24,25,26,27,28,29,30,31,32,33,34,35,36,37,38,39,40,41,42,};
Customers = {43,44,45,46,47,48,49,50,51,52,53,54,55,56,57,58,59,60,61,62,63,64,65,66,67,68,69,70,71,72,73,74,75,76,77,78,79,80,81,82,83,84,85,86,87,88,89,90,91,92,93,94,95,96,97,98,99,100,101,102,103,104,105,106,107,108,109,110,111,112,113,114,115,116,117,118,119,120,121,122,123,124,125,126,127,128,129,130,131,132,133,134,135,136,137,138,139,140,141,142,};
Depot_N1 = {143};

v = 1.0;
C = 1000.0;
Q = 209.92;
g = 0.14;
h = 1.0;

XCoord = #[
0	:	40.0
1	:	40.0
2	:	40.0
3	:	73.0
4	:	73.0
5	:	90.0
6	:	90.0
7	:	55.0
8	:	55.0
9	:	69.0
10	:	69.0
11	:	32.0
12	:	32.0
13	:	39.0
14	:	39.0
15	:	23.0
16	:	23.0
17	:	4.0
18	:	4.0
19	:	18.0
20	:	18.0
21	:	1.0
22	:	1.0
23	:	13.0
24	:	13.0
25	:	-5.0
26	:	-5.0
27	:	26.0
28	:	26.0
29	:	28.0
30	:	28.0
31	:	39.0
32	:	39.0
33	:	48.0
34	:	48.0
35	:	59.0
36	:	59.0
37	:	73.0
38	:	73.0
39	:	74.0
40	:	74.0
41	:	90.0
42	:	90.0
43	:	25.0
44	:	22.0
45	:	22.0
46	:	20.0
47	:	20.0
48	:	18.0
49	:	15.0
50	:	15.0
51	:	10.0
52	:	10.0
53	:	8.0
54	:	8.0
55	:	5.0
56	:	5.0
57	:	2.0
58	:	0.0
59	:	0.0
60	:	44.0
61	:	42.0
62	:	42.0
63	:	40.0
64	:	40.0
65	:	38.0
66	:	38.0
67	:	35.0
68	:	95.0
69	:	95.0
70	:	92.0
71	:	90.0
72	:	88.0
73	:	88.0
74	:	87.0
75	:	85.0
76	:	85.0
77	:	67.0
78	:	65.0
79	:	65.0
80	:	62.0
81	:	60.0
82	:	60.0
83	:	58.0
84	:	55.0
85	:	55.0
86	:	55.0
87	:	20.0
88	:	18.0
89	:	2.0
90	:	42.0
91	:	42.0
92	:	72.0
93	:	55.0
94	:	25.0
95	:	20.0
96	:	55.0
97	:	30.0
98	:	50.0
99	:	30.0
100	:	15.0
101	:	10.0
102	:	15.0
103	:	45.0
104	:	65.0
105	:	65.0
106	:	45.0
107	:	35.0
108	:	41.0
109	:	64.0
110	:	40.0
111	:	31.0
112	:	35.0
113	:	65.0
114	:	63.0
115	:	2.0
116	:	20.0
117	:	5.0
118	:	60.0
119	:	23.0
120	:	8.0
121	:	6.0
122	:	47.0
123	:	49.0
124	:	27.0
125	:	37.0
126	:	57.0
127	:	63.0
128	:	21.0
129	:	12.0
130	:	24.0
131	:	67.0
132	:	37.0
133	:	49.0
134	:	53.0
135	:	61.0
136	:	57.0
137	:	56.0
138	:	55.0
139	:	4.0
140	:	26.0
141	:	26.0
142	:	31.0
143	:	40.0
]#;

YCoord = #[
0	:	50.0
1	:	50.0
2	:	50.0
3	:	52.0
4	:	52.0
5	:	55.0
6	:	55.0
7	:	79.0
8	:	79.0
9	:	89.0
10	:	89.0
11	:	80.0
12	:	80.0
13	:	96.0
14	:	96.0
15	:	80.0
16	:	80.0
17	:	83.0
18	:	83.0
19	:	58.0
20	:	58.0
21	:	56.0
22	:	56.0
23	:	31.0
24	:	31.0
25	:	38.0
26	:	38.0
27	:	37.0
28	:	37.0
29	:	13.0
30	:	13.0
31	:	31.0
32	:	31.0
33	:	11.0
34	:	11.0
35	:	17.0
36	:	17.0
37	:	23.0
38	:	23.0
39	:	32.0
40	:	32.0
41	:	44.0
42	:	44.0
43	:	85.0
44	:	75.0
45	:	85.0
46	:	80.0
47	:	85.0
48	:	75.0
49	:	75.0
50	:	80.0
51	:	35.0
52	:	40.0
53	:	40.0
54	:	45.0
55	:	35.0
56	:	45.0
57	:	40.0
58	:	40.0
59	:	45.0
60	:	5.0
61	:	10.0
62	:	15.0
63	:	5.0
64	:	15.0
65	:	5.0
66	:	15.0
67	:	5.0
68	:	30.0
69	:	35.0
70	:	30.0
71	:	35.0
72	:	30.0
73	:	35.0
74	:	30.0
75	:	25.0
76	:	35.0
77	:	85.0
78	:	85.0
79	:	82.0
80	:	80.0
81	:	80.0
82	:	85.0
83	:	75.0
84	:	80.0
85	:	85.0
86	:	82.0
87	:	82.0
88	:	80.0
89	:	45.0
90	:	5.0
91	:	12.0
92	:	35.0
93	:	20.0
94	:	30.0
95	:	50.0
96	:	60.0
97	:	60.0
98	:	35.0
99	:	25.0
100	:	10.0
101	:	20.0
102	:	60.0
103	:	65.0
104	:	35.0
105	:	20.0
106	:	30.0
107	:	40.0
108	:	37.0
109	:	42.0
110	:	60.0
111	:	52.0
112	:	69.0
113	:	55.0
114	:	65.0
115	:	60.0
116	:	20.0
117	:	5.0
118	:	12.0
119	:	3.0
120	:	56.0
121	:	68.0
122	:	47.0
123	:	58.0
124	:	43.0
125	:	31.0
126	:	29.0
127	:	23.0
128	:	24.0
129	:	24.0
130	:	58.0
131	:	5.0
132	:	47.0
133	:	42.0
134	:	43.0
135	:	52.0
136	:	48.0
137	:	37.0
138	:	54.0
139	:	18.0
140	:	52.0
141	:	35.0
142	:	67.0
143	:	50.0
]#;

q = #[
0	:	0.0
1	:	0.0
2	:	0.0
3	:	0.0
4	:	0.0
5	:	0.0
6	:	0.0
7	:	0.0
8	:	0.0
9	:	0.0
10	:	0.0
11	:	0.0
12	:	0.0
13	:	0.0
14	:	0.0
15	:	0.0
16	:	0.0
17	:	0.0
18	:	0.0
19	:	0.0
20	:	0.0
21	:	0.0
22	:	0.0
23	:	0.0
24	:	0.0
25	:	0.0
26	:	0.0
27	:	0.0
28	:	0.0
29	:	0.0
30	:	0.0
31	:	0.0
32	:	0.0
33	:	0.0
34	:	0.0
35	:	0.0
36	:	0.0
37	:	0.0
38	:	0.0
39	:	0.0
40	:	0.0
41	:	0.0
42	:	0.0
43	:	20.0
44	:	30.0
45	:	10.0
46	:	40.0
47	:	20.0
48	:	20.0
49	:	20.0
50	:	10.0
51	:	20.0
52	:	30.0
53	:	40.0
54	:	20.0
55	:	10.0
56	:	10.0
57	:	20.0
58	:	20.0
59	:	20.0
60	:	20.0
61	:	40.0
62	:	10.0
63	:	10.0
64	:	40.0
65	:	30.0
66	:	10.0
67	:	20.0
68	:	30.0
69	:	20.0
70	:	10.0
71	:	10.0
72	:	10.0
73	:	20.0
74	:	10.0
75	:	10.0
76	:	30.0
77	:	20.0
78	:	40.0
79	:	10.0
80	:	30.0
81	:	10.0
82	:	30.0
83	:	20.0
84	:	10.0
85	:	20.0
86	:	10.0
87	:	10.0
88	:	10.0
89	:	10.0
90	:	10.0
91	:	10.0
92	:	30.0
93	:	19.0
94	:	3.0
95	:	5.0
96	:	16.0
97	:	16.0
98	:	19.0
99	:	23.0
100	:	20.0
101	:	19.0
102	:	17.0
103	:	9.0
104	:	3.0
105	:	6.0
106	:	17.0
107	:	16.0
108	:	16.0
109	:	9.0
110	:	21.0
111	:	27.0
112	:	23.0
113	:	14.0
114	:	8.0
115	:	5.0
116	:	8.0
117	:	16.0
118	:	31.0
119	:	7.0
120	:	27.0
121	:	30.0
122	:	13.0
123	:	10.0
124	:	9.0
125	:	14.0
126	:	18.0
127	:	2.0
128	:	28.0
129	:	13.0
130	:	19.0
131	:	25.0
132	:	6.0
133	:	13.0
134	:	14.0
135	:	3.0
136	:	23.0
137	:	6.0
138	:	26.0
139	:	35.0
140	:	9.0
141	:	15.0
142	:	3.0
143	:	0.0
]#;

e = #[
0	:	0.0
1	:	0.0
2	:	0.0
3	:	0.0
4	:	0.0
5	:	0.0
6	:	0.0
7	:	0.0
8	:	0.0
9	:	0.0
10	:	0.0
11	:	0.0
12	:	0.0
13	:	0.0
14	:	0.0
15	:	0.0
16	:	0.0
17	:	0.0
18	:	0.0
19	:	0.0
20	:	0.0
21	:	0.0
22	:	0.0
23	:	0.0
24	:	0.0
25	:	0.0
26	:	0.0
27	:	0.0
28	:	0.0
29	:	0.0
30	:	0.0
31	:	0.0
32	:	0.0
33	:	0.0
34	:	0.0
35	:	0.0
36	:	0.0
37	:	0.0
38	:	0.0
39	:	0.0
40	:	0.0
41	:	0.0
42	:	0.0
43	:	300.0
44	:	0.0
45	:	0.0
46	:	712.0
47	:	0.0
48	:	0.0
49	:	129.0
50	:	440.0
51	:	0.0
52	:	0.0
53	:	0.0
54	:	797.0
55	:	0.0
56	:	0.0
57	:	748.0
58	:	180.0
59	:	176.0
60	:	0.0
61	:	0.0
62	:	208.0
63	:	0.0
64	:	0.0
65	:	0.0
66	:	0.0
67	:	0.0
68	:	0.0
69	:	675.0
70	:	0.0
71	:	501.0
72	:	416.0
73	:	0.0
74	:	0.0
75	:	0.0
76	:	0.0
77	:	0.0
78	:	517.0
79	:	252.0
80	:	105.0
81	:	751.0
82	:	512.0
83	:	257.0
84	:	520.0
85	:	0.0
86	:	450.0
87	:	0.0
88	:	792.0
89	:	0.0
90	:	0.0
91	:	0.0
92	:	0.0
93	:	0.0
94	:	553.0
95	:	0.0
96	:	557.0
97	:	0.0
98	:	184.0
99	:	226.0
100	:	0.0
101	:	0.0
102	:	0.0
103	:	618.0
104	:	0.0
105	:	0.0
106	:	628.0
107	:	28.0
108	:	584.0
109	:	0.0
110	:	744.0
111	:	10.0
112	:	0.0
113	:	795.0
114	:	331.0
115	:	290.0
116	:	0.0
117	:	0.0
118	:	47.0
119	:	50.0
120	:	352.0
121	:	39.0
122	:	0.0
123	:	0.0
124	:	509.0
125	:	0.0
126	:	802.0
127	:	98.0
128	:	373.0
129	:	381.0
130	:	561.0
131	:	777.0
132	:	80.0
133	:	439.0
134	:	695.0
135	:	0.0
136	:	0.0
137	:	0.0
138	:	277.0
139	:	0.0
140	:	0.0
141	:	21.0
142	:	0.0
143	:	0.0
]#;

l = #[
0	:	960.0
1	:	960.0
2	:	960.0
3	:	960.0
4	:	960.0
5	:	960.0
6	:	960.0
7	:	960.0
8	:	960.0
9	:	960.0
10	:	960.0
11	:	960.0
12	:	960.0
13	:	960.0
14	:	960.0
15	:	960.0
16	:	960.0
17	:	960.0
18	:	960.0
19	:	960.0
20	:	960.0
21	:	960.0
22	:	960.0
23	:	960.0
24	:	960.0
25	:	960.0
26	:	960.0
27	:	960.0
28	:	960.0
29	:	960.0
30	:	960.0
31	:	960.0
32	:	960.0
33	:	960.0
34	:	960.0
35	:	960.0
36	:	960.0
37	:	960.0
38	:	960.0
39	:	960.0
40	:	960.0
41	:	960.0
42	:	960.0
43	:	420.0
44	:	919.0
45	:	910.0
46	:	832.0
47	:	909.0
48	:	916.0
49	:	249.0
50	:	560.0
51	:	916.0
52	:	918.0
53	:	916.0
54	:	917.0
55	:	911.0
56	:	914.0
57	:	868.0
58	:	300.0
59	:	296.0
60	:	904.0
61	:	909.0
62	:	328.0
63	:	905.0
64	:	915.0
65	:	904.0
66	:	914.0
67	:	904.0
68	:	891.0
69	:	795.0
70	:	894.0
71	:	621.0
72	:	536.0
73	:	899.0
74	:	898.0
75	:	898.0
76	:	902.0
77	:	905.0
78	:	637.0
79	:	372.0
80	:	225.0
81	:	871.0
82	:	632.0
83	:	377.0
84	:	640.0
85	:	911.0
86	:	570.0
87	:	912.0
88	:	912.0
89	:	911.0
90	:	904.0
91	:	911.0
92	:	914.0
93	:	916.0
94	:	673.0
95	:	930.0
96	:	677.0
97	:	935.0
98	:	304.0
99	:	346.0
100	:	902.0
101	:	907.0
102	:	923.0
103	:	738.0
104	:	920.0
105	:	910.0
106	:	748.0
107	:	148.0
108	:	704.0
109	:	924.0
110	:	864.0
111	:	130.0
112	:	930.0
113	:	915.0
114	:	451.0
115	:	410.0
116	:	913.0
117	:	892.0
118	:	167.0
119	:	170.0
120	:	472.0
121	:	159.0
122	:	942.0
123	:	937.0
124	:	629.0
125	:	930.0
126	:	922.0
127	:	218.0
128	:	493.0
129	:	501.0
130	:	681.0
131	:	897.0
132	:	200.0
133	:	559.0
134	:	815.0
135	:	928.0
136	:	932.0
137	:	929.0
138	:	397.0
139	:	901.0
140	:	935.0
141	:	141.0
142	:	930.0
143	:	960.0
]#;

s = #[
0	:	0.0
1	:	0.0
2	:	0.0
3	:	0.0
4	:	0.0
5	:	0.0
6	:	0.0
7	:	0.0
8	:	0.0
9	:	0.0
10	:	0.0
11	:	0.0
12	:	0.0
13	:	0.0
14	:	0.0
15	:	0.0
16	:	0.0
17	:	0.0
18	:	0.0
19	:	0.0
20	:	0.0
21	:	0.0
22	:	0.0
23	:	0.0
24	:	0.0
25	:	0.0
26	:	0.0
27	:	0.0
28	:	0.0
29	:	0.0
30	:	0.0
31	:	0.0
32	:	0.0
33	:	0.0
34	:	0.0
35	:	0.0
36	:	0.0
37	:	0.0
38	:	0.0
39	:	0.0
40	:	0.0
41	:	0.0
42	:	0.0
43	:	10.0
44	:	10.0
45	:	10.0
46	:	10.0
47	:	10.0
48	:	10.0
49	:	10.0
50	:	10.0
51	:	10.0
52	:	10.0
53	:	10.0
54	:	10.0
55	:	10.0
56	:	10.0
57	:	10.0
58	:	10.0
59	:	10.0
60	:	10.0
61	:	10.0
62	:	10.0
63	:	10.0
64	:	10.0
65	:	10.0
66	:	10.0
67	:	10.0
68	:	10.0
69	:	10.0
70	:	10.0
71	:	10.0
72	:	10.0
73	:	10.0
74	:	10.0
75	:	10.0
76	:	10.0
77	:	10.0
78	:	10.0
79	:	10.0
80	:	10.0
81	:	10.0
82	:	10.0
83	:	10.0
84	:	10.0
85	:	10.0
86	:	10.0
87	:	10.0
88	:	10.0
89	:	10.0
90	:	10.0
91	:	10.0
92	:	10.0
93	:	10.0
94	:	10.0
95	:	10.0
96	:	10.0
97	:	10.0
98	:	10.0
99	:	10.0
100	:	10.0
101	:	10.0
102	:	10.0
103	:	10.0
104	:	10.0
105	:	10.0
106	:	10.0
107	:	10.0
108	:	10.0
109	:	10.0
110	:	10.0
111	:	10.0
112	:	10.0
113	:	10.0
114	:	10.0
115	:	10.0
116	:	10.0
117	:	10.0
118	:	10.0
119	:	10.0
120	:	10.0
121	:	10.0
122	:	10.0
123	:	10.0
124	:	10.0
125	:	10.0
126	:	10.0
127	:	10.0
128	:	10.0
129	:	10.0
130	:	10.0
131	:	10.0
132	:	10.0
133	:	10.0
134	:	10.0
135	:	10.0
136	:	10.0
137	:	10.0
138	:	10.0
139	:	10.0
140	:	10.0
141	:	10.0
142	:	10.0
143	:	0.0
]#;
